20221024_PCST_ILP/Steiner1_dir_FC3_PtoC1_evid0.7_maxSt2_10_15.sol
# Objective value = -2.1353619702287290e+01
x_Ipl1_Cdc5 1
x_Cdc5_Mih1 1
x_Mih1_Hog1 1
x_Ipl1_Glc7 1
x_Glc7_Bud14 1
x_Bud14_Bem2 1
x_Glc7_Rpo21 1
x_Rpo21_Hog1 1
x_Snu66_Nam8 0
x_Nam8_Tif4632 0
x_Tif4632_Tif2 1
x_Snu66_Sto1 1
x_Sto1_Prt1 1
x_Prt1_Tif2 1
x_Sto1_Tif4631 1
x_Tif4631_Tif2 1
x_Sto1_Tif4632 1
x_Spa2_Slt2 1
x_Slt2_Fps1 1
x_Fps1_Hog1 1
x_Slt2_Hog1 0
x_Slt2_Ptc1 0
x_Ptc1_Hog1 0
x_Slt2_Ptp2 0
x_Ptp2_Hog1 0
x_Slt2_Sko1 1
x_Sko1_Hog1 1
x_Slt2_Ste7 0
x_Ste7_Hog1 0
y_Ipl1 1
y_Cdc5 1
y_Mih1 1
y_Glc7 1
y_Bud14 1
y_Rpo21 1
y_Snu66 1
y_Nam8 0
y_Tif4632 1
y_Sto1 1
y_Prt1 1
y_Tif4631 1
y_Spa2 1
y_Slt2 1
y_Fps1 1
y_Ptc1 0
y_Ptp2 0
y_Sko1 1
y_Ste7 0
y_Hog1 1
y_Bem2 1
y_Tif2 1
